c Standarized MaxSat Instance
c{
c "sha1sum": "2177bd5d70e6cd62a5337d454df05361b42ece15",
c "nvars": 140,
c "ncls": 1260,
c "total_lits": 2520,
c "nhards": 0,
c "nhard_nlits": 0,
c "nhard_len_stats":
c    { "min": 0,
c      "max": 0,
c      "ave": 0.0000,
c      "stddev": 0.0000 },
c "nsofts": 1260,
c "nsoft_nlits": 2520,
c "nsoft_len_stats":
c    { "min": 2,
c      "max": 2,
c      "ave": 2.0000,
c      "stddev": 0.0000 },
c "nsoft_wts": 1,
c "soft_wt_stats":
c    { "min": 1,
c      "max": 1,
c      "ave": 1.0000,
c      "stddev": 0.0000 }
c}
c------------------------------------------------------------
c strEdges: 189  randomEdges: 441 
c degrees:  2  3 
c girth: 10 max: 8.032766  
c Hgirth mixed MAXCUT instance
c generated from an undirected graph
c to solve unweighted MaxCut
1 94 68 0
1 -94 -68 0
1 94 80 0
1 -94 -80 0
1 94 22 0
1 -94 -22 0
1 38 137 0
1 -38 -137 0
1 38 17 0
1 -38 -17 0
1 38 96 0
1 -38 -96 0
1 11 122 0
1 -11 -122 0
1 11 77 0
1 -11 -77 0
1 66 128 0
1 -66 -128 0
1 66 133 0
1 -66 -133 0
1 66 136 0
1 -66 -136 0
1 105 78 0
1 -105 -78 0
1 105 29 0
1 -105 -29 0
1 105 17 0
1 -105 -17 0
1 56 49 0
1 -56 -49 0
1 56 125 0
1 -56 -125 0
1 56 18 0
1 -56 -18 0
1 107 63 0
1 -107 -63 0
1 107 13 0
1 -107 -13 0
1 107 71 0
1 -107 -71 0
1 99 30 0
1 -99 -30 0
1 99 85 0
1 -99 -85 0
1 99 115 0
1 -99 -115 0
1 108 133 0
1 -108 -133 0
1 108 61 0
1 -108 -61 0
1 108 81 0
1 -108 -81 0
1 112 85 0
1 -112 -85 0
1 112 63 0
1 -112 -63 0
1 112 41 0
1 -112 -41 0
1 139 140 0
1 -139 -140 0
1 139 122 0
1 -139 -122 0
1 139 52 0
1 -139 -52 0
1 113 17 0
1 -113 -17 0
1 113 41 0
1 -113 -41 0
1 113 140 0
1 -113 -140 0
1 60 91 0
1 -60 -91 0
1 60 13 0
1 -60 -13 0
1 28 2 0
1 -28 -2 0
1 28 90 0
1 -28 -90 0
1 27 115 0
1 -27 -115 0
1 27 42 0
1 -27 -42 0
1 27 67 0
1 -27 -67 0
1 59 58 0
1 -59 -58 0
1 59 7 0
1 -59 -7 0
1 88 64 0
1 -88 -64 0
1 88 91 0
1 -88 -91 0
1 117 33 0
1 -117 -33 0
1 117 5 0
1 -117 -5 0
1 117 50 0
1 -117 -50 0
1 69 53 0
1 -69 -53 0
1 69 136 0
1 -69 -136 0
1 15 19 0
1 -15 -19 0
1 15 4 0
1 -15 -4 0
1 15 2 0
1 -15 -2 0
1 138 45 0
1 -138 -45 0
1 138 14 0
1 -138 -14 0
1 138 10 0
1 -138 -10 0
1 34 86 0
1 -34 -86 0
1 34 122 0
1 -34 -122 0
1 93 8 0
1 -93 -8 0
1 93 135 0
1 -93 -135 0
1 93 71 0
1 -93 -71 0
1 70 14 0
1 -70 -14 0
1 70 90 0
1 -70 -90 0
1 70 29 0
1 -70 -29 0
1 87 65 0
1 -87 -65 0
1 87 100 0
1 -87 -100 0
1 87 45 0
1 -87 -45 0
1 116 83 0
1 -116 -83 0
1 116 95 0
1 -116 -95 0
1 116 84 0
1 -116 -84 0
1 123 22 0
1 -123 -22 0
1 123 30 0
1 -123 -30 0
1 43 136 0
1 -43 -136 0
1 43 58 0
1 -43 -58 0
1 43 64 0
1 -43 -64 0
1 62 4 0
1 -62 -4 0
1 62 63 0
1 -62 -63 0
1 62 84 0
1 -62 -84 0
1 102 18 0
1 -102 -18 0
1 102 77 0
1 -102 -77 0
1 6 37 0
1 -6 -37 0
1 6 3 0
1 -6 -3 0
1 6 30 0
1 -6 -30 0
1 130 10 0
1 -130 -10 0
1 130 103 0
1 -130 -103 0
1 36 61 0
1 -36 -61 0
1 36 80 0
1 -36 -80 0
1 73 9 0
1 -73 -9 0
1 73 33 0
1 -73 -33 0
1 73 92 0
1 -73 -92 0
1 101 84 0
1 -101 -84 0
1 101 96 0
1 -101 -96 0
1 114 42 0
1 -114 -42 0
1 114 78 0
1 -114 -78 0
1 114 75 0
1 -114 -75 0
1 40 90 0
1 -40 -90 0
1 40 53 0
1 -40 -53 0
1 40 1 0
1 -40 -1 0
1 109 3 0
1 -109 -3 0
1 109 124 0
1 -109 -124 0
1 109 32 0
1 -109 -32 0
1 31 131 0
1 -31 -131 0
1 31 45 0
1 -31 -45 0
1 31 22 0
1 -31 -22 0
1 55 50 0
1 -55 -50 0
1 55 115 0
1 -55 -115 0
1 16 125 0
1 -16 -125 0
1 16 2 0
1 -16 -2 0
1 16 67 0
1 -16 -67 0
1 47 52 0
1 -47 -52 0
1 47 9 0
1 -47 -9 0
1 12 110 0
1 -12 -110 0
1 12 8 0
1 -12 -8 0
1 12 89 0
1 -12 -89 0
1 48 89 0
1 -48 -89 0
1 48 83 0
1 -48 -83 0
1 48 120 0
1 -48 -120 0
1 79 13 0
1 -79 -13 0
1 79 1 0
1 -79 -1 0
1 79 32 0
1 -79 -32 0
1 23 100 0
1 -23 -100 0
1 23 76 0
1 -23 -76 0
1 23 95 0
1 -23 -95 0
1 54 1 0
1 -54 -1 0
1 54 68 0
1 -54 -68 0
1 54 86 0
1 -54 -86 0
1 72 75 0
1 -72 -75 0
1 72 58 0
1 -72 -58 0
1 72 4 0
1 -72 -4 0
1 111 120 0
1 -111 -120 0
1 111 103 0
1 -111 -103 0
1 111 140 0
1 -111 -140 0
1 132 96 0
1 -132 -96 0
1 132 5 0
1 -132 -5 0
1 132 124 0
1 -132 -124 0
1 35 103 0
1 -35 -103 0
1 35 64 0
1 -35 -64 0
1 35 68 0
1 -35 -68 0
1 39 97 0
1 -39 -97 0
1 39 89 0
1 -39 -89 0
1 39 131 0
1 -39 -131 0
1 46 32 0
1 -46 -32 0
1 46 120 0
1 -46 -120 0
1 74 95 0
1 -74 -95 0
1 74 61 0
1 -74 -61 0
1 74 127 0
1 -74 -127 0
1 126 7 0
1 -126 -7 0
1 126 131 0
1 -126 -131 0
1 126 137 0
1 -126 -137 0
1 104 80 0
1 -104 -80 0
1 104 21 0
1 -104 -21 0
1 98 76 0
1 -98 -76 0
1 98 50 0
1 -98 -50 0
1 98 91 0
1 -98 -91 0
1 57 124 0
1 -57 -124 0
1 57 128 0
1 -57 -128 0
1 118 134 0
1 -118 -134 0
1 118 75 0
1 -118 -75 0
1 118 86 0
1 -118 -86 0
1 121 5 0
1 -121 -5 0
1 121 21 0
1 -121 -21 0
1 26 77 0
1 -26 -77 0
1 26 85 0
1 -26 -85 0
1 106 81 0
1 -106 -81 0
1 106 97 0
1 -106 -97 0
1 106 134 0
1 -106 -134 0
1 129 135 0
1 -129 -135 0
1 129 128 0
1 -129 -128 0
1 129 18 0
1 -129 -18 0
1 25 21 0
1 -25 -21 0
1 25 125 0
1 -25 -125 0
1 51 29 0
1 -51 -29 0
1 51 110 0
1 -51 -110 0
1 51 37 0
1 -51 -37 0
1 44 92 0
1 -44 -92 0
1 44 19 0
1 -44 -19 0
1 44 81 0
1 -44 -81 0
1 119 67 0
1 -119 -67 0
1 119 127 0
1 -119 -127 0
1 119 52 0
1 -119 -52 0
1 20 41 0
1 -20 -41 0
1 20 49 0
1 -20 -49 0
1 20 76 0
1 -20 -76 0
1 82 71 0
1 -82 -71 0
1 82 65 0
1 -82 -65 0
1 82 9 0
1 -82 -9 0
1 24 127 0
1 -24 -127 0
1 24 7 0
1 -24 -7 0
1 4 41 0
1 -4 -41 0
1 129 22 0
1 -129 -22 0
1 102 137 0
1 -102 -137 0
1 26 7 0
1 -26 -7 0
1 57 67 0
1 -57 -67 0
1 53 9 0
1 -53 -9 0
1 25 32 0
1 -25 -32 0
1 39 75 0
1 -39 -75 0
1 30 97 0
1 -30 -97 0
1 27 23 0
1 -27 -23 0
1 93 133 0
1 -93 -133 0
1 58 92 0
1 -58 -92 0
1 31 65 0
1 -31 -65 0
1 133 65 0
1 -133 -65 0
1 40 79 0
1 -40 -79 0
1 82 42 0
1 -82 -42 0
1 36 44 0
1 -36 -44 0
1 73 46 0
1 -73 -46 0
1 122 50 0
1 -122 -50 0
1 58 65 0
1 -58 -65 0
1 118 18 0
1 -118 -18 0
1 74 86 0
1 -74 -86 0
1 123 53 0
1 -123 -53 0
1 93 98 0
1 -93 -98 0
1 89 41 0
1 -89 -41 0
1 38 7 0
1 -38 -7 0
1 24 61 0
1 -24 -61 0
1 35 76 0
1 -35 -76 0
1 106 33 0
1 -106 -33 0
1 36 54 0
1 -36 -54 0
1 26 32 0
1 -26 -32 0
1 18 29 0
1 -18 -29 0
1 104 95 0
1 -104 -95 0
1 128 90 0
1 -128 -90 0
1 137 134 0
1 -137 -134 0
1 31 37 0
1 -31 -37 0
1 140 50 0
1 -140 -50 0
1 49 71 0
1 -49 -71 0
1 87 133 0
1 -87 -133 0
1 11 31 0
1 -11 -31 0
1 125 29 0
1 -125 -29 0
1 113 84 0
1 -113 -84 0
1 37 29 0
1 -37 -29 0
1 102 68 0
1 -102 -68 0
1 112 75 0
1 -112 -75 0
1 79 81 0
1 -79 -81 0
1 133 95 0
1 -133 -95 0
1 25 92 0
1 -25 -92 0
1 138 123 0
1 -138 -123 0
1 138 1 0
1 -138 -1 0
1 8 131 0
1 -8 -131 0
1 2 32 0
1 -2 -32 0
1 123 48 0
1 -123 -48 0
1 16 37 0
1 -16 -37 0
1 129 21 0
1 -129 -21 0
1 106 77 0
1 -106 -77 0
1 73 58 0
1 -73 -58 0
1 102 130 0
1 -102 -130 0
1 27 122 0
1 -27 -122 0
1 82 49 0
1 -82 -49 0
1 30 136 0
1 -30 -136 0
1 122 41 0
1 -122 -41 0
1 78 96 0
1 -78 -96 0
1 121 127 0
1 -121 -127 0
1 34 16 0
1 -34 -16 0
1 47 96 0
1 -47 -96 0
1 107 104 0
1 -107 -104 0
1 39 115 0
1 -39 -115 0
1 28 135 0
1 -28 -135 0
1 94 123 0
1 -94 -123 0
1 119 95 0
1 -119 -95 0
1 139 113 0
1 -139 -113 0
1 55 137 0
1 -55 -137 0
1 3 135 0
1 -3 -135 0
1 93 83 0
1 -93 -83 0
1 55 46 0
1 -55 -46 0
1 46 65 0
1 -46 -65 0
1 48 80 0
1 -48 -80 0
1 104 24 0
1 -104 -24 0
1 51 75 0
1 -51 -75 0
1 102 111 0
1 -102 -111 0
1 130 106 0
1 -130 -106 0
1 107 87 0
1 -107 -87 0
1 109 90 0
1 -109 -90 0
1 36 58 0
1 -36 -58 0
1 88 7 0
1 -88 -7 0
1 129 49 0
1 -129 -49 0
1 26 97 0
1 -26 -97 0
1 28 86 0
1 -28 -86 0
1 122 49 0
1 -122 -49 0
1 99 20 0
1 -99 -20 0
1 99 52 0
1 -99 -52 0
1 69 75 0
1 -69 -75 0
1 48 58 0
1 -48 -58 0
1 94 91 0
1 -94 -91 0
1 119 9 0
1 -119 -9 0
1 21 127 0
1 -21 -127 0
1 116 61 0
1 -116 -61 0
1 28 93 0
1 -28 -93 0
1 101 35 0
1 -101 -35 0
1 98 19 0
1 -98 -19 0
1 94 8 0
1 -94 -8 0
1 20 3 0
1 -20 -3 0
1 121 91 0
1 -121 -91 0
1 68 1 0
1 -68 -1 0
1 74 80 0
1 -74 -80 0
1 104 103 0
1 -104 -103 0
1 121 85 0
1 -121 -85 0
1 140 33 0
1 -140 -33 0
1 11 64 0
1 -11 -64 0
1 94 4 0
1 -94 -4 0
1 41 127 0
1 -41 -127 0
1 86 67 0
1 -86 -67 0
1 109 75 0
1 -109 -75 0
1 138 2 0
1 -138 -2 0
1 86 42 0
1 -86 -42 0
1 137 2 0
1 -137 -2 0
1 84 50 0
1 -84 -50 0
1 59 115 0
1 -59 -115 0
1 118 21 0
1 -118 -21 0
1 107 15 0
1 -107 -15 0
1 132 3 0
1 -132 -3 0
1 5 67 0
1 -5 -67 0
1 95 29 0
1 -95 -29 0
1 137 37 0
1 -137 -37 0
1 69 8 0
1 -69 -8 0
1 130 133 0
1 -130 -133 0
1 40 110 0
1 -40 -110 0
1 118 9 0
1 -118 -9 0
1 23 106 0
1 -23 -106 0
1 116 140 0
1 -116 -140 0
1 24 90 0
1 -24 -90 0
1 42 1 0
1 -42 -1 0
1 12 118 0
1 -12 -118 0
1 132 84 0
1 -132 -84 0
1 94 17 0
1 -94 -17 0
1 11 3 0
1 -11 -3 0
1 48 3 0
1 -48 -3 0
1 89 81 0
1 -89 -81 0
1 28 9 0
1 -28 -9 0
1 13 135 0
1 -13 -135 0
1 91 45 0
1 -91 -45 0
1 59 25 0
1 -59 -25 0
1 35 74 0
1 -35 -74 0
1 51 14 0
1 -51 -14 0
1 111 26 0
1 -111 -26 0
1 107 79 0
1 -107 -79 0
1 27 85 0
1 -27 -85 0
1 70 98 0
1 -70 -98 0
1 89 96 0
1 -89 -96 0
1 33 120 0
1 -33 -120 0
1 74 131 0
1 -74 -131 0
1 20 22 0
1 -20 -22 0
1 74 14 0
1 -74 -14 0
1 99 29 0
1 -99 -29 0
1 15 118 0
1 -15 -118 0
1 28 1 0
1 -28 -1 0
1 58 80 0
1 -58 -80 0
1 27 126 0
1 -27 -126 0
1 32 7 0
1 -32 -7 0
1 46 96 0
1 -46 -96 0
1 121 44 0
1 -121 -44 0
1 136 3 0
1 -136 -3 0
1 93 63 0
1 -93 -63 0
1 122 1 0
1 -122 -1 0
1 137 95 0
1 -137 -95 0
1 101 76 0
1 -101 -76 0
1 97 81 0
1 -97 -81 0
1 106 68 0
1 -106 -68 0
1 102 19 0
1 -102 -19 0
1 64 45 0
1 -64 -45 0
1 119 131 0
1 -119 -131 0
1 82 100 0
1 -82 -100 0
1 103 7 0
1 -103 -7 0
1 35 2 0
1 -35 -2 0
1 16 135 0
1 -16 -135 0
1 137 71 0
1 -137 -71 0
1 94 21 0
1 -94 -21 0
1 62 52 0
1 -62 -52 0
1 55 19 0
1 -55 -19 0
1 59 47 0
1 -59 -47 0
1 65 89 0
1 -65 -89 0
1 112 111 0
1 -112 -111 0
1 46 14 0
1 -46 -14 0
1 94 15 0
1 -94 -15 0
1 25 120 0
1 -25 -120 0
1 70 42 0
1 -70 -42 0
1 119 89 0
1 -119 -89 0
1 53 67 0
1 -53 -67 0
1 31 128 0
1 -31 -128 0
1 69 98 0
1 -69 -98 0
1 28 63 0
1 -28 -63 0
1 11 108 0
1 -11 -108 0
1 1 97 0
1 -1 -97 0
1 72 65 0
1 -72 -65 0
1 17 125 0
1 -17 -125 0
1 61 120 0
1 -61 -120 0
1 121 96 0
1 -121 -96 0
1 130 96 0
1 -130 -96 0
1 31 86 0
1 -31 -86 0
1 74 128 0
1 -74 -128 0
1 93 22 0
1 -93 -22 0
1 102 106 0
1 -102 -106 0
1 104 120 0
1 -104 -120 0
1 31 80 0
1 -31 -80 0
1 5 71 0
1 -5 -71 0
1 31 44 0
1 -31 -44 0
1 138 13 0
1 -138 -13 0
1 121 53 0
1 -121 -53 0
1 135 92 0
1 -135 -92 0
1 79 50 0
1 -79 -50 0
1 27 137 0
1 -27 -137 0
1 123 96 0
1 -123 -96 0
1 45 81 0
1 -45 -81 0
1 112 127 0
1 -112 -127 0
1 132 26 0
1 -132 -26 0
1 70 64 0
1 -70 -64 0
1 79 127 0
1 -79 -127 0
1 66 16 0
1 -66 -16 0
1 31 24 0
1 -31 -24 0
1 13 100 0
1 -13 -100 0
1 22 124 0
1 -22 -124 0
1 129 37 0
1 -129 -37 0
1 47 1 0
1 -47 -1 0
1 138 128 0
1 -138 -128 0
1 138 68 0
1 -138 -68 0
1 60 121 0
1 -60 -121 0
1 27 82 0
1 -27 -82 0
1 72 92 0
1 -72 -92 0
1 14 100 0
1 -14 -100 0
1 98 90 0
1 -98 -90 0
1 28 111 0
1 -28 -111 0
1 94 135 0
1 -94 -135 0
1 24 86 0
1 -24 -86 0
1 64 32 0
1 -64 -32 0
1 45 65 0
1 -45 -65 0
1 79 131 0
1 -79 -131 0
1 39 10 0
1 -39 -10 0
1 54 26 0
1 -54 -26 0
1 135 41 0
1 -135 -41 0
1 60 123 0
1 -60 -123 0
1 105 30 0
1 -105 -30 0
1 122 96 0
1 -122 -96 0
1 23 96 0
1 -23 -96 0
1 23 63 0
1 -23 -63 0
1 58 136 0
1 -58 -136 0
1 129 64 0
1 -129 -64 0
1 99 33 0
1 -99 -33 0
1 74 135 0
1 -74 -135 0
1 38 122 0
1 -38 -122 0
1 112 20 0
1 -112 -20 0
1 11 137 0
1 -11 -137 0
1 8 41 0
1 -8 -41 0
1 64 84 0
1 -64 -84 0
1 139 2 0
1 -139 -2 0
1 112 36 0
1 -112 -36 0
1 139 27 0
1 -139 -27 0
1 89 5 0
1 -89 -5 0
1 19 136 0
1 -19 -136 0
1 125 103 0
1 -125 -103 0
1 40 33 0
1 -40 -33 0
1 70 2 0
1 -70 -2 0
1 4 96 0
1 -4 -96 0
1 72 98 0
1 -72 -98 0
1 24 85 0
1 -24 -85 0
1 87 85 0
1 -87 -85 0
1 52 92 0
1 -52 -92 0
1 12 46 0
1 -12 -46 0
1 68 125 0
1 -68 -125 0
1 105 129 0
1 -105 -129 0
1 20 135 0
1 -20 -135 0
1 93 53 0
1 -93 -53 0
1 138 48 0
1 -138 -48 0
1 123 82 0
1 -123 -82 0
1 17 50 0
1 -17 -50 0
1 137 78 0
1 -137 -78 0
1 139 71 0
1 -139 -71 0
1 82 64 0
1 -82 -64 0
1 28 117 0
1 -28 -117 0
1 43 52 0
1 -43 -52 0
1 28 87 0
1 -28 -87 0
1 115 80 0
1 -115 -80 0
1 93 78 0
1 -93 -78 0
1 58 5 0
1 -58 -5 0
1 139 6 0
1 -139 -6 0
1 12 61 0
1 -12 -61 0
1 47 41 0
1 -47 -41 0
1 68 64 0
1 -68 -64 0
1 51 20 0
1 -51 -20 0
1 40 54 0
1 -40 -54 0
1 102 79 0
1 -102 -79 0
1 17 2 0
1 -17 -2 0
1 10 13 0
1 -10 -13 0
1 139 88 0
1 -139 -88 0
1 64 103 0
1 -64 -103 0
1 85 81 0
1 -85 -81 0
1 76 5 0
1 -76 -5 0
1 78 5 0
1 -78 -5 0
1 61 103 0
1 -61 -103 0
1 132 1 0
1 -132 -1 0
1 47 140 0
1 -47 -140 0
1 130 42 0
1 -130 -42 0
1 66 26 0
1 -66 -26 0
1 86 18 0
1 -86 -18 0
1 121 22 0
1 -121 -22 0
1 22 18 0
1 -22 -18 0
1 51 97 0
1 -51 -97 0
1 112 114 0
1 -112 -114 0
1 58 124 0
1 -58 -124 0
1 112 129 0
1 -112 -129 0
1 46 84 0
1 -46 -84 0
1 56 32 0
1 -56 -32 0
1 32 92 0
1 -32 -92 0
1 53 96 0
1 -53 -96 0
1 49 4 0
1 -49 -4 0
1 115 124 0
1 -115 -124 0
1 83 71 0
1 -83 -71 0
1 119 45 0
1 -119 -45 0
1 91 95 0
1 -91 -95 0
1 81 135 0
1 -81 -135 0
1 69 73 0
1 -69 -73 0
1 70 40 0
1 -70 -40 0
1 21 29 0
1 -21 -29 0
1 30 65 0
1 -30 -65 0
1 68 128 0
1 -68 -128 0
1 34 128 0
1 -34 -128 0
1 88 77 0
1 -88 -77 0
1 43 2 0
1 -43 -2 0
1 60 88 0
1 -60 -88 0
1 139 90 0
1 -139 -90 0
1 44 90 0
1 -44 -90 0
1 9 96 0
1 -9 -96 0
1 88 140 0
1 -88 -140 0
1 94 106 0
1 -94 -106 0
1 89 103 0
1 -89 -103 0
1 69 46 0
1 -69 -46 0
1 23 8 0
1 -23 -8 0
1 136 80 0
1 -136 -80 0
1 112 109 0
1 -112 -109 0
1 68 49 0
1 -68 -49 0
1 77 127 0
1 -77 -127 0
1 19 77 0
1 -19 -77 0
1 33 13 0
1 -33 -13 0
1 43 24 0
1 -43 -24 0
1 87 136 0
1 -87 -136 0
1 94 88 0
1 -94 -88 0
1 16 5 0
1 -16 -5 0
1 118 2 0
1 -118 -2 0
1 13 67 0
1 -13 -67 0
1 85 124 0
1 -85 -124 0
1 33 81 0
1 -33 -81 0
1 128 91 0
1 -128 -91 0
1 70 51 0
1 -70 -51 0
1 2 3 0
1 -2 -3 0
1 42 71 0
1 -42 -71 0
1 107 57 0
1 -107 -57 0
1 24 68 0
1 -24 -68 0
1 131 13 0
1 -131 -13 0
1 80 77 0
1 -80 -77 0
1 107 115 0
1 -107 -115 0
1 138 35 0
1 -138 -35 0
1 20 53 0
1 -20 -53 0
1 56 8 0
1 -56 -8 0
1 104 64 0
1 -104 -64 0
1 9 29 0
1 -9 -29 0
1 125 32 0
1 -125 -32 0
1 35 45 0
1 -35 -45 0
1 88 110 0
1 -88 -110 0
1 99 13 0
1 -99 -13 0
1 113 67 0
1 -113 -67 0
1 31 57 0
1 -31 -57 0
1 20 19 0
1 -20 -19 0
1 123 135 0
1 -123 -135 0
1 134 71 0
1 -134 -71 0
1 57 80 0
1 -57 -80 0
1 99 120 0
1 -99 -120 0
1 114 90 0
1 -114 -90 0
1 43 114 0
1 -43 -114 0
1 28 118 0
1 -28 -118 0
1 52 29 0
1 -52 -29 0
1 59 15 0
1 -59 -15 0
1 132 90 0
1 -132 -90 0
1 35 95 0
1 -35 -95 0
1 79 8 0
1 -79 -8 0
1 130 97 0
1 -130 -97 0
1 129 103 0
1 -129 -103 0
1 109 68 0
1 -109 -68 0
1 80 71 0
1 -80 -71 0
1 118 37 0
1 -118 -37 0
1 67 71 0
1 -67 -71 0
1 22 41 0
1 -22 -41 0
1 99 23 0
1 -99 -23 0
1 3 97 0
1 -3 -97 0
1 28 46 0
1 -28 -46 0
1 66 102 0
1 -66 -102 0
1 44 133 0
1 -44 -133 0
1 59 2 0
1 -59 -2 0
1 107 81 0
1 -107 -81 0
1 140 127 0
1 -140 -127 0
1 109 78 0
1 -109 -78 0
1 50 32 0
1 -50 -32 0
1 69 57 0
1 -69 -57 0
1 72 14 0
1 -72 -14 0
1 98 115 0
1 -98 -115 0
1 28 10 0
1 -28 -10 0
1 139 64 0
1 -139 -64 0
1 48 37 0
1 -48 -37 0
1 121 61 0
1 -121 -61 0
1 47 118 0
1 -47 -118 0
1 88 63 0
1 -88 -63 0
1 79 118 0
1 -79 -118 0
1 62 23 0
1 -62 -23 0
1 32 67 0
1 -32 -67 0
1 26 29 0
1 -26 -29 0
1 122 22 0
1 -122 -22 0
1 53 124 0
1 -53 -124 0
1 87 6 0
1 -87 -6 0
1 19 86 0
1 -19 -86 0
1 100 96 0
1 -100 -96 0
1 28 71 0
1 -28 -71 0
1 109 133 0
1 -109 -133 0
1 117 23 0
1 -117 -23 0
1 113 47 0
1 -113 -47 0
1 87 49 0
1 -87 -49 0
1 116 109 0
1 -116 -109 0
1 28 24 0
1 -28 -24 0
1 39 53 0
1 -39 -53 0
1 116 86 0
1 -116 -86 0
1 53 135 0
1 -53 -135 0
1 49 8 0
1 -49 -8 0
1 87 118 0
1 -87 -118 0
1 27 13 0
1 -27 -13 0
1 89 29 0
1 -89 -29 0
1 73 20 0
1 -73 -20 0
1 129 131 0
1 -129 -131 0
1 105 110 0
1 -105 -110 0
1 51 24 0
1 -51 -24 0
1 27 14 0
1 -27 -14 0
1 108 28 0
1 -108 -28 0
1 47 126 0
1 -47 -126 0
1 14 125 0
1 -14 -125 0
